
Gurobi 6.5.2 (win64) logging started 07/24/16 17:42:23


Gurobi 6.5.2 (win64) logging started 07/24/16 17:42:23

Optimize a model with 4529 rows, 822 columns and 11048 nonzeros
Coefficient statistics:
  Matrix range    [6e-08, 4e+02]
  Objective range [1e+00, 1e+00]
  Bounds range    [1e+00, 1e+00]
  RHS range       [6e-06, 3e+03]
Presolve removed 3865 rows and 105 columns
Presolve time: 0.02s
Presolved: 664 rows, 717 columns, 3444 nonzeros
Variable types: 285 continuous, 432 integer (432 binary)

Root relaxation: objective 2.062235e+01, 1839 iterations, 0.05 seconds

    Nodes    |    Current Node    |     Objective Bounds      |     Work
 Expl Unexpl |  Obj  Depth IntInf | Incumbent    BestBd   Gap | It/Node Time

     0     0   20.62235    0   98          -   20.62235      -     -    0s
H    0     0                     152.8072089   20.64558  86.5%     -    0s
     0     0   21.16176    0  110  152.80721   21.16176  86.2%     -    0s
H    0     0                      21.5934868   21.16176  2.00%     -    0s
     0     0   21.18011    0  112   21.59349   21.18011  1.91%     -    0s
     0     0   21.18011    0   88   21.59349   21.18011  1.91%     -    0s
     0     0   21.18011    0  102   21.59349   21.18011  1.91%     -    0s
     0     0   21.19495    0   99   21.59349   21.19495  1.85%     -    0s
H    0     0                      21.5566895   21.19495  1.68%     -    0s
     0     0   21.19701    0  101   21.55669   21.19701  1.67%     -    0s
     0     0   21.19701    0  101   21.55669   21.19701  1.67%     -    0s
     0     2   21.19701    0  101   21.55669   21.19701  1.67%     -    0s
*  828   454              18      21.5491583   21.27871  1.26%   7.9    0s

Cutting planes:
  Gomory: 2
  MIR: 16
  Flow cover: 14

Explored 1484 nodes (18517 simplex iterations) in 0.95 seconds
Thread count was 8 (of 8 available processors)

Optimal solution found (tolerance 1.00e-04)
Best objective 2.154915833906e+01, best bound 2.154915833906e+01, gap 0.0%

Wrote requested result file 'H1\instance23\\Results23E_Sol6.lp'

